(set-info :origin "driver benchmark extracted from Microsoft SDV")
(set-logic HORN)
(declare-fun Proc13
             (Int (Array Int Int) (Array Int Int) Int Int Bool Int Int Int Int)
             Bool)
(declare-fun Proc9
             (Int (Array Int Int) (Array Int Int) Int Int Bool Int Int Int Int)
             Bool)
(declare-fun Proc4 (Int (Array Int Int) (Array Int Int) Int Int Bool Int) Bool)
(declare-fun Proc0
             (Int (Array Int Int) (Array Int Int) Int Int Bool Int Int)
             Bool)
(declare-fun Proc32 (Int (Array Int Int) (Array Int Int) Int Int Bool) Bool)
(declare-fun Proc12 (Int (Array Int Int) (Array Int Int) Int Int Bool Int) Bool)
(declare-fun Proc5
             (Int (Array Int Int) (Array Int Int) Int Int Bool Int Int Int Int)
             Bool)
(declare-fun Proc3
             (Int (Array Int Int) (Array Int Int) Int Int Bool Int Int Int Int)
             Bool)
(declare-fun Proc22 (Int (Array Int Int) (Array Int Int) Int Int Bool Int) Bool)
(declare-fun Proc29
             (Int
              (Array Int Int)
              (Array Int Int)
              Int
              Int
              Bool
              Int
              Int
              Int
              (Array Int Int)
              Int
              Int)
             Bool)
(declare-fun Proc19
             (Int
              (Array Int Int)
              (Array Int Int)
              Int
              Int
              Bool
              Int
              Int
              Int
              (Array Int Int)
              Bool
              Int
              (Array Int Int))
             Bool)
(declare-fun Proc2
             (Int
              (Array Int Int)
              (Array Int Int)
              Int
              Int
              Bool
              Int
              Int
              Int
              Int
              Int)
             Bool)
(declare-fun Proc23
             (Int (Array Int Int) (Array Int Int) Int Int Bool Int Int)
             Bool)
(declare-fun Proc17 (Int (Array Int Int) (Array Int Int) Int Int Bool Int) Bool)
(declare-fun Proc15 (Int (Array Int Int) (Array Int Int) Int Int Bool) Bool)
(declare-fun Proc7
             (Int (Array Int Int) (Array Int Int) Int Int Bool Int Int Int Int)
             Bool)
(declare-fun Proc8
             (Int
              (Array Int Int)
              (Array Int Int)
              Int
              Int
              Bool
              Int
              Int
              Int
              Int
              Int
              Int)
             Bool)
(declare-fun Proc18
             (Int
              (Array Int Int)
              (Array Int Int)
              Int
              Int
              Bool
              (Array Int Int)
              Int
              Int)
             Bool)
(declare-fun Proc11
             (Int (Array Int Int) (Array Int Int) Int Int Bool Int Int Int Int)
             Bool)
(declare-fun Proc14 (Int (Array Int Int) (Array Int Int) Int Int Bool) Bool)
(declare-fun Proc24
             (Int
              (Array Int Int)
              (Array Int Int)
              Int
              Int
              Bool
              Int
              Int
              Int
              (Array Int Int)
              Int)
             Bool)
(declare-fun Proc30
             (Int
              (Array Int Int)
              (Array Int Int)
              Int
              Int
              Bool
              Int
              Int
              Int
              (Array Int Int)
              Int)
             Bool)
(declare-fun Proc26
             (Int
              (Array Int Int)
              (Array Int Int)
              Int
              Int
              Bool
              Int
              Int
              Int
              (Array Int Int)
              Int)
             Bool)
(declare-fun Proc27
             (Int
              (Array Int Int)
              (Array Int Int)
              Int
              Int
              Bool
              Int
              Int
              Int
              (Array Int Int)
              Int)
             Bool)
(declare-fun Proc33
             (Int
              (Array Int Int)
              (Array Int Int)
              Int
              Int
              Bool
              Int
              Bool
              Int
              Int
              (Array Int Int)
              Int
              (Array Int Int))
             Bool)
(declare-fun Proc16
             (Int (Array Int Int) (Array Int Int) Int Int Bool Int Int)
             Bool)
(declare-fun Proc31
             (Int
              (Array Int Int)
              (Array Int Int)
              Int
              Int
              Bool
              Int
              Int
              Int
              (Array Int Int)
              Int)
             Bool)
(declare-fun Proc25
             (Int
              (Array Int Int)
              (Array Int Int)
              Int
              Int
              Bool
              Int
              Int
              Int
              (Array Int Int)
              Int)
             Bool)
(declare-fun Proc28
             (Int
              (Array Int Int)
              (Array Int Int)
              Int
              Int
              Bool
              Int
              Int
              Int
              (Array Int Int)
              Int)
             Bool)
(declare-fun Proc10
             (Int (Array Int Int) (Array Int Int) Int Int Bool Int Int)
             Bool)
(declare-fun Proc1
             (Int (Array Int Int) (Array Int Int) Int Int Bool Int Int Int Int)
             Bool)
(declare-fun Proc6
             (Int
              (Array Int Int)
              (Array Int Int)
              Int
              Int
              Bool
              Int
              Int
              Int
              Int
              Int
              Int)
             Bool)
(declare-fun Proc20
             (Int (Array Int Int) (Array Int Int) Int Int Bool Int Int)
             Bool)
(declare-fun Proc21 (Int (Array Int Int) (Array Int Int) Int Int Bool) Bool)
(assert (forall ((A Int)
         (B Int)
         (C Int)
         (D Int)
         (E Int)
         (F Int)
         (G Int)
         (H Int)
         (I Int)
         (J (Array Int Int))
         (K (Array Int Int))
         (L Int)
         (M Int)
         (N Int)
         (O Int)
         (P Bool))
  (let ((a!1 (and (not (<= M (+ 4 O))) (not (<= M N))))
        (a!2 (not (and (not (= G 0)) (Proc1 M K J I H P F E 1 D)))))
  (let ((a!3 (or (not P)
                 (not (= O N))
                 (not a!1)
                 (= L 0)
                 (not (Proc0 M K J I H P 2 O))
                 (= G 0)
                 a!2
                 (not (and (= C 0) (= B M))))))
    (=> (not a!3) (Proc2 N K J I H P L A F C B))))))
(assert (forall ((A Int)
         (B Int)
         (C Int)
         (D Int)
         (E Int)
         (F Int)
         (G Int)
         (H Int)
         (I Int)
         (J (Array Int Int))
         (K (Array Int Int))
         (L Int)
         (M Int)
         (N Int)
         (P Bool))
  (let ((a!1 (not (Proc3 N K J L I P H G F E)))
        (a!3 (and (not (<= A (+ 1 B))) (not (<= A M)))))
  (let ((a!2 (or (not (= N M)) a!1 (not (and (= D 0) (= C E)))))
        (a!4 (or (not (= B M))
                 (not a!3)
                 (not (and (Proc4 A K J L I P B) (= N A)))
                 a!1
                 (not (and (= D 0) (= C E))))))
    (=> (not (or (not P) (and a!2 a!4))) (Proc5 M K J L I P H G D C))))))
(assert (forall ((A Int)
         (B Int)
         (C Int)
         (D Int)
         (E Int)
         (F Int)
         (G Int)
         (H Int)
         (I Int)
         (J (Array Int Int))
         (K (Array Int Int))
         (L Int)
         (M Int)
         (N Int)
         (O Int)
         (P Bool))
  (let ((a!1 (not (Proc3 G K J M L P O I F E)))
        (a!3 (and (not (<= A (+ 1 B))) (not (<= A N)))))
  (let ((a!2 (or (not (= G N)) a!1 (not (and (= D F) (= C E)))))
        (a!4 (or (not (= B N))
                 (not a!3)
                 (not (and (Proc4 A K J M L P B) (= G A)))
                 a!1
                 (not (and (= D F) (= C E))))))
  (let ((a!5 (not (or (not P)
                      (= O 0)
                      (not (Proc6 N K J M L P I 100 H 1 1 1))
                      (and a!2 a!4)))))
    (=> a!5 (Proc7 N K J M L P O I D C)))))))
(assert (forall ((A Int)
         (B Int)
         (C Int)
         (D Int)
         (E Int)
         (F Int)
         (G Int)
         (H Int)
         (I Int)
         (J (Array Int Int))
         (K (Array Int Int))
         (L Int)
         (M Int)
         (N Int)
         (O Int)
         (P Bool)
         (Q Int)
         (R Int)
         (S Int)
         (T Int)
         (U Int)
         (V Int)
         (W Int)
         (X Int)
         (Y Int)
         (Z Int)
         (A1 Int)
         (B1 Int)
         (C1 Int))
  (let ((a!1 (and (not (<= A1 (+ 4 C1))) (not (<= A1 B1))))
        (a!2 (or (not (Proc8 A1 K J Y X P W Z V C1 U T))
                 (not (= S T))
                 (not (and (= R 259) (= Q S)))))
        (a!3 (or (not (= S A1)) (not (and (= R 259) (= Q S)))))
        (a!4 (or (not (Proc8 A1 K J Y X P O Z N C1 M L))
                 (not (= S L))
                 (not (and (= R 259) (= Q S)))))
        (a!5 (or (not (Proc8 A1 K J Y X P I Z H C1 G F))
                 (not (= S F))
                 (not (and (= R 259) (= Q S)))))
        (a!6 (or (not (Proc8 A1 K J Y X P E Z D C1 C B))
                 (not (= S B))
                 (not (and (= R 259) (= Q S))))))
  (let ((a!7 (or (not P)
                 (not (= C1 B1))
                 (not a!1)
                 (and (or (= Z 0) (and a!2 a!3))
                      (or (= Z 0) (and a!4 a!3))
                      (or (= Z 0) (and a!5 a!3))
                      (or (= Z 0) (and a!6 a!3))))))
    (=> (not a!7) (Proc9 B1 K J Y X P A Z R Q))))))
(assert (forall ((A Int)
         (B Int)
         (C Int)
         (D Int)
         (E Int)
         (F Int)
         (G Int)
         (H Int)
         (J (Array Int Int))
         (K (Array Int Int))
         (P Bool))
  (let ((a!1 (not (or (not P) (not (= H G))))))
    (=> a!1 (Proc1 F K J E D P C B A H)))))
(assert (forall ((A Int)
         (B Int)
         (C Int)
         (D Int)
         (E Int)
         (F Int)
         (G Int)
         (H Int)
         (I Int)
         (J (Array Int Int))
         (K (Array Int Int))
         (L Int)
         (P Bool))
  (let ((a!1 (and (not (<= H (+ 1 L))) (not (<= H I)))))
  (let ((a!2 (or (not P)
                 (not (= L I))
                 (not a!1)
                 (not (Proc10 H K J G F P L E))
                 (not (and (= D H) (= C E))))))
    (=> (not a!2) (Proc11 I K J G F P B A D C))))))
(assert (forall ((A Int)
         (B Int)
         (C Int)
         (D Int)
         (E Int)
         (J (Array Int Int))
         (K (Array Int Int))
         (P Bool))
  (let ((a!1 (not (or (not P) (not (= E 1))))))
    (=> a!1 (Proc10 D K J C B P A E)))))
(assert (forall ((A Int)
         (B Int)
         (C Int)
         (D Int)
         (J (Array Int Int))
         (K (Array Int Int))
         (P Bool))
  (=> P (Proc12 D K J C B P A))))
(assert (forall ((A Int)
         (B Int)
         (C Int)
         (D Int)
         (J (Array Int Int))
         (K (Array Int Int))
         (P Bool))
  (=> P (Proc4 D K J C B P A))))
(assert (forall ((A Int)
         (B Int)
         (C Int)
         (D Int)
         (E Int)
         (F Int)
         (G Int)
         (H Int)
         (I Int)
         (J (Array Int Int))
         (K (Array Int Int))
         (L Int)
         (M Int)
         (N Int)
         (P Bool))
  (let ((a!1 (and (not (= N 0)) (= M (select K (+ 164 N)))))
        (a!2 (or (= (select J M) 27)
                 (not (and (= L I) (= H G)))
                 (not (and (= F L) (= E H)))))
        (a!3 (or (not (and (= L I) (= H G))) (not (and (= F L) (= E H)))))
        (a!4 (or (= D 1)
                 (not (and (= L I) (= H G)))
                 (not (and (= F L) (= E H)))))
        (a!5 (or (not (= A 1))
                 (not (and (= L B) (= H A)))
                 (not (and (= F L) (= E H)))))
        (a!6 (or (= A 1)
                 (not (and (= L B) (= H A)))
                 (not (and (= F L) (= E H))))))
  (let ((a!7 (and a!3 (or (not (Proc11 I K J D G P C N B A)) (and a!5 a!6)))))
  (let ((a!8 (and a!3 a!4 (or (not (= D 1)) a!7))))
  (let ((a!9 (or (not (= (select J M) 27)) a!8)))
    (=> (not (or (not P) (not a!1) (= M 0) (and a!2 a!9)))
        (Proc13 I K J D G P C N F E))))))))
(assert (forall ((A Int)
         (B Int)
         (C Int)
         (J (Array Int Int))
         (K (Array Int Int))
         (P Bool))
  (=> P (Proc14 C K J B A P))))
(assert (forall ((A Int)
         (B Int)
         (C Int)
         (J (Array Int Int))
         (K (Array Int Int))
         (P Bool))
  (=> P (Proc15 C K J B A P))))
(assert (forall ((A Int)
         (B Int)
         (C Int)
         (D Int)
         (E Int)
         (J (Array Int Int))
         (K (Array Int Int))
         (P Bool))
  (let ((a!1 (or (not P) (not (and (= E 0) (= D 0))))))
    (=> (not a!1) (Proc16 C K J B A P E D)))))
(assert (forall ((A Int)
         (B Int)
         (C Int)
         (D Int)
         (E Int)
         (F Int)
         (G Int)
         (H Int)
         (I Int)
         (J (Array Int Int))
         (K (Array Int Int))
         (L Int)
         (M Int)
         (N Int)
         (O Int)
         (P Bool)
         (Q Int)
         (R Int)
         (D1 Bool)
         (E1 Bool)
         (F1 Bool)
         (G1 Bool)
         (H1 (Array Int Int))
         (I1 (Array Int Int))
         (J1 (Array Int Int))
         (K1 (Array Int Int))
         (L1 Bool))
  (let ((a!1 (not (and (not (<= R 0)) (Proc17 R K1 J1 Q O L1 N))))
        (a!2 (not (and (= E G) (= D M) (= C H) F1 (= E1 G1) (= B I) D1))))
  (let ((a!3 (or (= H 0) (not (and (= G F) (not G1))) a!2))
        (a!4 (or (not (and (= H 0) (= P L1))) (not (and (= G A) (= G1 P))) a!2)))
  (let ((a!5 (and (or (= H 1) (and a!3 a!4)) (or (not (= H 1)) (and a!3 a!4)))))
  (let ((a!6 (not (or (not L1)
                      a!1
                      (not (Proc16 N K1 J1 Q O L1 M L))
                      (not (Proc15 N K1 J1 M L L1))
                      (not (Proc14 N K1 J1 M L L1))
                      (not (Proc18 N I1 J1 M L L1 H1 I H))
                      a!5))))
    (=> (and a!6 (= F1 (= K I1)) (= D1 (= J H1)))
        (Proc19 R K1 J1 Q O L1 E D C K E1 B J))))))))
(assert (forall ((A Int)
         (B Int)
         (C Int)
         (D Int)
         (E Int)
         (F Int)
         (G Int)
         (H Int)
         (I Int)
         (J (Array Int Int))
         (K (Array Int Int))
         (L Int)
         (M Int)
         (N Int)
         (P Bool))
  (let ((a!1 (not (Proc9 N K J L I P H G F E)))
        (a!3 (and (not (<= A (+ 1 B))) (not (<= A M)))))
  (let ((a!2 (or (not (= N M)) a!1 (not (and (= D F) (= C E)))))
        (a!4 (or (not (= B M))
                 (not a!3)
                 (not (and (Proc12 A K J L I P B) (= N A)))
                 a!1
                 (not (and (= D F) (= C E))))))
    (=> (not (or (not P) (and a!2 a!4))) (Proc3 M K J L I P H G D C))))))
(assert (forall ((A Int)
         (B Int)
         (C Int)
         (D Int)
         (E Int)
         (F Int)
         (G Int)
         (H Int)
         (I Int)
         (J (Array Int Int))
         (K (Array Int Int))
         (P Bool))
  (let ((a!1 (and (or (not (= I H)) (not (= G I)))
                  (or (not (= I F)) (not (= G I)))
                  (or (not (= I E)) (not (= G I))))))
    (=> (not (or (not P) a!1)) (Proc20 D K J C B P A G)))))
(assert (forall ((A Int)
         (B Int)
         (C Int)
         (D Int)
         (E Int)
         (F Int)
         (G Int)
         (H Int)
         (I Int)
         (J (Array Int Int))
         (K (Array Int Int))
         (L Int)
         (P Bool))
  (let ((a!1 (not (or (not P) (not (Proc20 L K J I H P G F)) (= F 0)))))
    (=> a!1 (Proc6 L K J I H P G E D C B A)))))
(assert (forall ((A Int)
         (B Int)
         (C Int)
         (D Int)
         (E Int)
         (J (Array Int Int))
         (K (Array Int Int))
         (P Bool))
  (=> (not (or (not P) (= E 0))) (Proc0 D K J C B P A E))))
(assert (forall ((A Int)
         (B Int)
         (C Int)
         (D Int)
         (E Int)
         (F Int)
         (G Int)
         (H Int)
         (I Int)
         (J (Array Int Int))
         (K (Array Int Int))
         (L Int)
         (M Int)
         (N Int)
         (O Int)
         (P Bool)
         (Q Int))
  (let ((a!1 (or (not (and (= I Q) (= H 0))) (not (and (= G H) (= F I)))))
        (a!2 (or (not (Proc2 Q K J O N P E M D C B))
                 (= A 0)
                 (not (and (= I B) (= H C)))
                 (not (and (= G H) (= F I))))))
  (let ((a!3 (not (or (not P)
                      (not (Proc20 Q K J O N P M L))
                      (= L 0)
                      (and a!1 a!2)))))
    (=> a!3 (Proc8 Q K J O N P E M D A G F))))))
(assert (forall ((A Int)
         (B Int)
         (C Int)
         (D Int)
         (E Int)
         (F Int)
         (G Int)
         (H Int)
         (I Int)
         (J (Array Int Int))
         (K (Array Int Int))
         (L Int)
         (P Bool)
         (D1 Bool)
         (E1 Bool)
         (H1 (Array Int Int))
         (I1 (Array Int Int)))
  (let ((a!1 (and (not (= L 0)) (= I (select I1 (+ 164 L)))))
        (a!2 (not (and (not (= I 0)) D1))))
  (let ((a!3 (or (not E1)
                 (not a!1)
                 a!2
                 (= I 0)
                 (= L 0)
                 (not (Proc21 H I1 H1 G F E1))
                 (not (Proc22 H I1 H1 G F E1 L))
                 (not (Proc5 H I1 H1 G F E1 E L D C))
                 (not (Proc23 C I1 H1 G F E1 D L))
                 (not (and (= B D) P (= A C))))))
  (let ((a!4 (and (not a!3) (= D1 (= H1 (store K I 27))) (= P (= J H1)))))
    (=> a!4 (Proc24 H I1 K G F E1 E L B J A)))))))
(assert (forall ((A Int)
         (B Int)
         (C Int)
         (D Int)
         (E Int)
         (F Int)
         (G Int)
         (H Int)
         (I Int)
         (J (Array Int Int))
         (K (Array Int Int))
         (L Int)
         (P Bool)
         (D1 Bool)
         (E1 Bool)
         (H1 (Array Int Int))
         (I1 (Array Int Int)))
  (let ((a!1 (and (not (= L 0)) (= I (select I1 (+ 164 L)))))
        (a!2 (not (and (not (= I 0)) D1))))
  (let ((a!3 (or (not E1)
                 (not a!1)
                 a!2
                 (= I 0)
                 (= L 0)
                 (not (Proc22 H I1 H1 G F E1 L))
                 (not (Proc5 H I1 H1 G F E1 E L D C))
                 (not (and (= B D) P (= A C))))))
  (let ((a!4 (and (not a!3) (= D1 (= H1 (store K I 27))) (= P (= J H1)))))
    (=> a!4 (Proc25 H I1 K G F E1 E L B J A)))))))
(assert (forall ((A Int)
         (B Int)
         (C Int)
         (D Int)
         (E Int)
         (F Int)
         (G Int)
         (H Int)
         (I Int)
         (J (Array Int Int))
         (K (Array Int Int))
         (L Int)
         (P Bool)
         (D1 Bool)
         (E1 Bool)
         (H1 (Array Int Int))
         (I1 (Array Int Int)))
  (let ((a!1 (and (not (= L 0)) (= I (select I1 (+ 164 L)))))
        (a!2 (not (and (not (= I 0)) D1))))
  (let ((a!3 (or (not E1)
                 (not a!1)
                 a!2
                 (= I 0)
                 (= L 0)
                 (not (Proc22 H I1 H1 G F E1 L))
                 (not (Proc7 H I1 H1 G F E1 E L D C))
                 (not (and (= B D) P (= A C))))))
  (let ((a!4 (and (not a!3) (= D1 (= H1 (store K I 22))) (= P (= J H1)))))
    (=> a!4 (Proc26 H I1 K G F E1 E L B J A)))))))
(assert (forall ((A Int)
         (B Int)
         (C Int)
         (D Int)
         (E Int)
         (F Int)
         (G Int)
         (H Int)
         (I Int)
         (J (Array Int Int))
         (K (Array Int Int))
         (L Int)
         (P Bool)
         (D1 Bool)
         (E1 Bool)
         (H1 (Array Int Int))
         (I1 (Array Int Int)))
  (let ((a!1 (and (not (= L 0)) (= I (select I1 (+ 164 L)))))
        (a!2 (not (and (not (= I 0)) D1))))
  (let ((a!3 (or (not E1)
                 (not a!1)
                 a!2
                 (= I 0)
                 (= L 0)
                 (not (Proc22 H I1 H1 G F E1 L))
                 (not (Proc7 H I1 H1 G F E1 E L D C))
                 (not (and (= B D) P (= A C))))))
  (let ((a!4 (and (not a!3) (= D1 (= H1 (store K I 22))) (= P (= J H1)))))
    (=> a!4 (Proc27 H I1 K G F E1 E L B J A)))))))
(assert (forall ((A Int)
         (B Int)
         (C Int)
         (D Int)
         (E Int)
         (F Int)
         (G Int)
         (H Int)
         (I Int)
         (J (Array Int Int))
         (K (Array Int Int))
         (L Int)
         (P Bool)
         (D1 Bool)
         (E1 Bool)
         (H1 (Array Int Int))
         (I1 (Array Int Int)))
  (let ((a!1 (and (not (= L 0)) (= I (select I1 (+ 164 L)))))
        (a!2 (not (and (not (= I 0)) D1))))
  (let ((a!3 (or (not E1)
                 (not a!1)
                 a!2
                 (= I 0)
                 (= L 0)
                 (not (Proc22 H I1 H1 G F E1 L))
                 (not (Proc5 H I1 H1 G F E1 E L D C))
                 (not (and (= B D) P (= A C))))))
  (let ((a!4 (and (not a!3) (= D1 (= H1 (store K I 27))) (= P (= J H1)))))
    (=> a!4 (Proc28 H I1 K G F E1 E L B J A)))))))
(assert (forall ((A Int)
         (B Int)
         (C Int)
         (D Int)
         (E Int)
         (F Int)
         (G Int)
         (H Int)
         (I Int)
         (J (Array Int Int))
         (K (Array Int Int))
         (L Int)
         (M Int)
         (N Int)
         (O Int)
         (P Bool)
         (Q Int)
         (R Int)
         (D1 Bool)
         (E1 Bool)
         (H1 (Array Int Int))
         (I1 (Array Int Int)))
  (let ((a!1 (and (not (= R 0)) (= Q (select I1 (+ 164 R)))))
        (a!2 (not (and (not (= Q 0)) D1)))
        (a!3 (and (not (<= F (+ 1 G))) (not (<= F H))))
        (a!4 (not (and (= C I) P (= B E) (= A D)))))
  (let ((a!5 (and (or (not (= D 1)) a!4) (or (= D 1) a!4))))
  (let ((a!6 (not (or (not E1)
                      (not a!1)
                      a!2
                      (= Q 0)
                      (= R 0)
                      (not (Proc21 O I1 H1 N M E1))
                      (not (Proc22 O I1 H1 N M E1 R))
                      (not (Proc5 O I1 H1 N M E1 L R I H))
                      (not (Proc23 H I1 H1 N M E1 I R))
                      (not (= G H))
                      (not a!3)
                      (not (Proc13 F I1 H1 N M E1 G R E D))
                      a!5))))
  (let ((a!7 (and a!6 (= D1 (= H1 (store K Q 27))) (= P (= J H1)))))
    (=> a!7 (Proc29 O I1 K N M E1 L R C J B A))))))))
(assert (forall ((A Int)
         (B Int)
         (C Int)
         (D Int)
         (E Int)
         (F Int)
         (G Int)
         (H Int)
         (I Int)
         (J (Array Int Int))
         (K (Array Int Int))
         (L Int)
         (P Bool)
         (D1 Bool)
         (E1 Bool)
         (H1 (Array Int Int))
         (I1 (Array Int Int)))
  (let ((a!1 (and (not (= L 0)) (= I (select I1 (+ 164 L)))))
        (a!2 (not (and (not (= I 0)) D1))))
  (let ((a!3 (or (not E1)
                 (not a!1)
                 a!2
                 (= I 0)
                 (= L 0)
                 (not (Proc22 H I1 H1 G F E1 L))
                 (not (Proc7 H I1 H1 G F E1 E L D C))
                 (not (and (= B D) P (= A C))))))
  (let ((a!4 (and (not a!3) (= D1 (= H1 (store K I 22))) (= P (= J H1)))))
    (=> a!4 (Proc30 H I1 K G F E1 E L B J A)))))))
(assert (forall ((A Int)
         (B Int)
         (C Int)
         (D Int)
         (E Int)
         (F Int)
         (G Int)
         (H Int)
         (I Int)
         (J (Array Int Int))
         (K (Array Int Int))
         (L Int)
         (P Bool)
         (D1 Bool)
         (E1 Bool)
         (H1 (Array Int Int))
         (I1 (Array Int Int)))
  (let ((a!1 (and (not (= L 0)) (= I (select I1 (+ 164 L)))))
        (a!2 (not (and (not (= I 0)) D1))))
  (let ((a!3 (or (not E1)
                 (not a!1)
                 a!2
                 (= I 0)
                 (= L 0)
                 (not (Proc22 H I1 H1 G F E1 L))
                 (not (Proc7 H I1 H1 G F E1 E L D C))
                 (not (and (= B D) P (= A C))))))
  (let ((a!4 (and (not a!3) (= D1 (= H1 (store K I 22))) (= P (= J H1)))))
    (=> a!4 (Proc31 H I1 K G F E1 E L B J A)))))))
(assert (forall ((A Int)
         (B Int)
         (C Int)
         (D Int)
         (J (Array Int Int))
         (K (Array Int Int))
         (P Bool))
  (=> (not (or (not P) (= D 0))) (Proc22 C K J B A P D))))
(assert (forall ((A Int)
         (B Int)
         (C Int)
         (D Int)
         (E Int)
         (F Int)
         (G Int)
         (H Int)
         (I Int)
         (J (Array Int Int))
         (K (Array Int Int))
         (L Int)
         (M Int)
         (N Int)
         (O Int)
         (P Bool)
         (Q Int)
         (R Int)
         (S Int)
         (T Int)
         (U Int)
         (V Int)
         (W Int)
         (X Int)
         (Y Int)
         (Z Int)
         (A1 Int)
         (B1 Int)
         (C1 Int)
         (D1 Bool)
         (E1 Bool)
         (F1 Bool)
         (H1 (Array Int Int))
         (I1 (Array Int Int))
         (J1 (Array Int Int))
         (K1 (Array Int Int))
         (M1 (Array Int Int))
         (N1 Int)
         (O1 (Array Int Int))
         (P1 Int)
         (Q1 Int)
         (R1 Int)
         (S1 Int)
         (T1 Int)
         (U1 Int)
         (V1 Int)
         (W1 Int)
         (X1 Int)
         (Y1 (Array Int Int))
         (Z1 Int)
         (A2 Int)
         (B2 Int)
         (C2 Int)
         (D2 Int)
         (E2 (Array Int Int))
         (F2 Int)
         (G2 Int)
         (H2 Int)
         (I2 Int)
         (J2 Int)
         (K2 (Array Int Int))
         (L2 (Array Int Int))
         (M2 Int))
  (let ((a!1 (or (not (= W1 1))
                 (not (and (= V1 X1) E1))
                 (not (and D1 (= U1 V1) (= T1 W1)))))
        (a!2 (or (= W1 1)
                 (not (<= 0 Z1))
                 (not (= S1 1))
                 (= S1 0)
                 (not (Proc24 X1 L2 Y1 J2 W1 F1 R1 Q1 P1 O1 N1))
                 (not (<= 0 P1))
                 (not (= C1 1))
                 (= C1 0)
                 (not (Proc25 N1 L2 O1 J2 W1 F1 B1 A1 Z M1 Y))
                 (not (<= 0 Z))
                 (not (= X 1))
                 (= X 0)
                 (not (Proc27 Y L2 M1 J2 W1 F1 W V U K1 T))
                 (not (<= 0 U))
                 (not (= S 1))
                 (= S 0)
                 (not (Proc31 T L2 K1 J2 W1 F1 R Q O J1 N))
                 (not (<= 0 O))
                 (not (= M 1))
                 (= M 0)
                 (not (Proc26 N L2 J1 J2 W1 F1 L I H I1 G))
                 (not (<= 0 H))
                 (not (= F 1))
                 (= F 0)
                 (not (Proc30 G L2 I1 J2 W1 F1 E D C H1 B))
                 (not (<= 0 C))
                 (not (= A 1))
                 (= A 0)
                 (not (and (= V1 B) P))
                 (not (and D1 (= U1 V1) (= T1 W1))))))
  (let ((a!3 (not (or (not F1)
                      (not (Proc32 M2 L2 K2 J2 I2 F1))
                      (not (Proc28 M2 L2 K2 J2 I2 F1 H2 G2 F2 E2 D2))
                      (not (<= 0 F2))
                      (not (= C2 1))
                      (= C2 0)
                      (not (Proc29 D2 L2 E2 J2 I2 F1 B2 A2 Z1 Y1 X1 W1))
                      (and a!1 a!2)))))
    (=> (and a!3 (= E1 (= K Y1)) (= D1 (= J K)) (= P (= K H1)))
        (Proc18 M2 L2 K2 J2 I2 F1 J U1 T1))))))
(assert (forall ((A Int)
         (B Int)
         (C Int)
         (J (Array Int Int))
         (K (Array Int Int))
         (P Bool))
  (=> P (Proc21 C K J B A P))))
(assert (forall ((A Int)
         (B Int)
         (C Int)
         (D Int)
         (E Int)
         (J (Array Int Int))
         (K (Array Int Int))
         (P Bool))
  (=> P (Proc23 E K J D C P B A))))
(assert (forall ((A Int)
         (B Int)
         (C Int)
         (J (Array Int Int))
         (K (Array Int Int))
         (P Bool))
  (=> P (Proc32 C K J B A P))))
(assert (forall ((A Int)
         (B Int)
         (C Int)
         (D Int)
         (E Int)
         (F Int)
         (G Int)
         (H Int)
         (I Int)
         (J (Array Int Int))
         (K (Array Int Int))
         (L Int)
         (M Int)
         (N Int)
         (O Int)
         (P Bool)
         (Q Int)
         (R Int)
         (S Int)
         (T Int)
         (U Int)
         (V Int)
         (W Int)
         (X Int)
         (Y Int)
         (Z Int)
         (A1 Int)
         (B1 Int)
         (C1 Int)
         (N1 Int)
         (P1 Int)
         (Q1 Int)
         (R1 Int)
         (S1 Int)
         (T1 Int)
         (U1 Int)
         (V1 Int)
         (W1 Int)
         (X1 Int)
         (Z1 Int)
         (A2 Int)
         (B2 Int)
         (C2 Int)
         (D2 Int)
         (F2 Int)
         (G2 Int)
         (H2 Int)
         (I2 Int)
         (J2 Int)
         (M2 Int)
         (N2 Int)
         (O2 Int)
         (P2 Int)
         (Q2 Int)
         (R2 Int)
         (S2 Int)
         (T2 Int)
         (U2 Int)
         (V2 Int))
  (let ((a!1 (and (= V2 U2) (not (<= T2 (+ 332 V2)))))
        (a!2 (and (not (<= T2 U2))
                  (= S2 T2)
                  (not (<= R2 (+ 4 S2)))
                  (not (<= R2 T2))))
        (a!3 (and (= Q2 R2)
                  (not (<= P2 (+ 332 Q2)))
                  (not (<= P2 R2))
                  (= O2 P2)
                  (not (<= N2 (+ 4 O2)))
                  (not (<= N2 P2))
                  (= M2 N2)
                  (not (<= J2 (+ 536 M2)))))
        (a!4 (and (not (<= J2 N2))
                  (= I2 J2)
                  (not (<= H2 (+ 240 I2)))
                  (not (<= H2 J2))
                  (= G2 H2)
                  (not (<= F2 (+ 240 G2)))
                  (not (<= F2 H2))
                  (= D2 F2)
                  (not (<= C2 (+ 536 D2)))
                  (not (<= C2 F2))
                  (= B2 C2)
                  (not (<= A2 (+ 240 B2)))
                  (not (<= A2 C2))
                  (= Z1 A2)
                  (not (<= X1 (+ 4 Z1)))
                  (not (<= X1 A2))
                  (= W1 X1)
                  (not (<= V1 (+ 536 W1)))
                  (not (<= V1 X1))
                  (= U1 V1)
                  (not (<= T1 (+ 332 U1)))
                  (not (<= T1 V1))
                  (= S1 T1)
                  (not (<= R1 (+ 240 S1)))
                  (not (<= R1 T1))
                  (= Q1 R1)
                  (not (<= P1 (+ 240 Q1)))
                  (not (<= P1 R1))
                  (= N1 P1)
                  (not (<= C1 (+ 332 N1)))
                  (not (<= C1 P1))
                  (= B1 C1)
                  (not (<= A1 (+ 4 B1)))
                  (not (<= A1 C1))
                  (= Z A1)
                  (not (<= Y (+ 536 Z)))
                  (not (<= Y A1))
                  (= X Y)
                  (not (<= W (+ 240 X)))
                  (not (<= W Y))
                  (= V W)
                  (not (<= U (+ 240 V)))
                  (not (<= U W))
                  (= T U)
                  (not (<= S (+ 240 T)))
                  (not (<= S U))
                  (= R S)
                  (not (<= Q (+ 240 R)))
                  (not (<= Q S))
                  (= O Q)
                  (not (<= N (+ 240 O)))
                  (not (<= N Q))
                  (= M N)
                  (not (<= L (+ 40 M)))
                  (not (<= L N))
                  (= I L)
                  (not (<= H (+ 332 I)))
                  (not (<= H L))
                  (= G H)
                  (not (<= F (+ 4 G)))
                  (not (<= F H))
                  (= E F)
                  (not (<= D (+ 40 E)))
                  (not (<= D F)))))
  (let ((a!5 (not (or (not P)
                      (not a!1)
                      (not a!2)
                      (not a!3)
                      (not a!4)
                      (not (= C D))))))
    (=> a!5 (Proc17 U2 K J B A P C))))))
(assert (forall ((A Int)
         (B Int)
         (C Int)
         (D Int)
         (E Int)
         (F Int)
         (G Int)
         (H Int)
         (I Int)
         (J (Array Int Int))
         (K (Array Int Int))
         (L Int)
         (M Int)
         (P Bool)
         (D1 Bool)
         (E1 Bool)
         (H1 (Array Int Int))
         (I1 (Array Int Int))
         (J1 (Array Int Int))
         (K1 (Array Int Int)))
  (let ((a!1 (or (not E1)
                 (not (and (Proc19 M K1 J1 L I true H G F I1 D1 E H1) (not D1))))))
    (=> (not a!1) (Proc33 M K1 J1 L I E1 D P C B K A J)))))
(assert (let ((a!1 (exists ((V0 Int)
                    (V1 (Array Int Int))
                    (V2 (Array Int Int))
                    (V3 Int)
                    (V4 Int)
                    (V5 Bool)
                    (V6 Int)
                    (V7 Bool)
                    (V8 Int)
                    (V9 Int)
                    (V10 (Array Int Int))
                    (V11 Int)
                    (V12 (Array Int Int)))
             (not (=> (and (Proc33 V0 V1 V2 V3 V4 V5 V6 V7 V8 V9 V10 V11 V12)
                           (not false))
                      false)))))
  (not a!1)))

(check-sat)
